benchmarks_vrp/att48_0.vrp
NAME: att48_0
TYPE: CVRP
COMMENT: (Rinaldi,Yarrow/Araque) - Cluster Nr.0
DIMENSION: 5
CAPACITY: 15
EDGE_WEIGHT_TYPE: ATT
NODE_COORD_TYPE: TWOD_COORDS
NODE_COORD_SECTION: 
5 6823 4674
4 7877 1716
1 7260 2083
2 7010 2710
3 7692 2247
DEPOT_SECTION: 
5
-1
DEMAND_SECTION: 
4 1
2 1
3 1
5 0
1 1
EOF
