benchmarks_vrp/att48_0.tour
NAME: att48_0 solution
TYPE: TOUR
TOUR_SECTION:
5 2 1 4 3 -1
-1
EOF